32	0

0	2	2	3
4	4	4	5	6	9
7	3	4	6	8
8	3	10	11	12
7	2	7	8
5	1	7
1	3	10	11	12
4	3	10	11	12
10	3	10	11	12
5	3	14	16	17
1	2	13	15
8	3	18	19	20
1	3	14	16	17
7	3	18	19	20
5	3	18	19	20
7	3	18	19	20
4	3	18	19	20
7	3	21	22	26
8	3	22	23	26
1	3	21	22	26
2	1	23
7	2	27	28
2	1	24
3	1	25
1	2	27	28
7	2	27	28
4	3	29	30	31
4	3	29	30	31
5	1	32
7	1	32
7	1	32
0	0
